(declare-const |havoc:0:32| Int)
(declare-const tmp___0 Int)
(declare-const tmp Int)
(declare-const |s':35| Int)
(declare-const |K:42| Int)
(declare-const |tmp':36| Int)
(declare-const |phi_s:10:13:33| Int)
(declare-const |tmp___0':37| Int)
(declare-const |havoc:3:14:34| Int)
(assert (and (or (not (and (<= (- |K:42|) 0) (<= |K:42| 0))) (= |s':35| 0))
               (or (not (<= (+ (- |K:42|) 1) 0)) (= |s':35| 0))
               (or (and (= |K:42| 0) (= (+ (- |tmp___0':37|) tmp___0) 0)
                          (= (+ (- |tmp':36|) tmp) 0) (= (- |s':35|) 0))
                     (and (<= (+ (- |K:42|) 1) 0) (= |s':35| 0)
                            (<= (- |tmp':36|) 0)
                            (<= (+ (- |tmp___0':37|) 1) 0)))
               (<= (- |K:42|) 0) (= |s':35| 0) (= |s':35| 0)
               (<= (- |havoc:0:32|) 0) (not (= |havoc:0:32| 0))
               (or (and (<= (- |s':35|) 0) (<= |s':35| 0)
                          (= (+ (- |phi_s:10:13:33|) |s':35|) 0))
                     (and (or (< |s':35| 0) (< (- |s':35|) 0))
                            (= (+ (- |phi_s:10:13:33|) |s':35| 1) 0)))
               (<= (- |havoc:3:14:34|) 0) (not (= |havoc:3:14:34| 0))
               (not (= |phi_s:10:13:33| 0))))
(check-sat)
